AES/1_4_4/ssaes_r1-20_c4_rw1_e4_f0_k1-20_aes_canon_box_aes_mc_bidirectional/ExperimentMinisat_r5_k4cnf_2011-11-18-115653/Result
WARNING: for repeatability, setting FPU to use double precision
============================[ Problem Statistics ]=============================
|                                                                             |
|  Number of variables:           808                                         |
|  Number of clauses:            4649                                         |
|  Parse time:                   0.00 s                                       |
|  Eliminated clauses:           0.01 Mb                                      |
|  Simplification time:          0.01 s                                       |
|                                                                             |
=============================[ Search Statistics ]==============================
| Conflicts  |          ORIGINAL         |          LEARNT          | Progress |
|            |    Vars  Clauses Literals |    Limit  Clauses Lit/Cl |          |
================================================================================
|        100 |     635     4183    12967 |     1533      100     25 |  6.438 % |
|        250 |     635     4183    12967 |     1687      250     24 |  6.437 % |
|        475 |     635     4183    12967 |     1855      475     22 |  6.437 % |
|        812 |     635     4183    12967 |     2041      812     20 |  6.437 % |
|       1318 |     635     4183    12967 |     2245     1318     19 |  6.437 % |
|       2077 |     635     4183    12967 |     2470     2077     18 |  6.437 % |
===============================================================================
restarts              : 14
conflicts             : 2141           (35689 /sec)
decisions             : 3013           (0.00 % random) (50225 /sec)
propagations          : 301089         (5018986 /sec)
conflict literals     : 37761          (40.27 % deleted)
Memory used           : 8.00 MB
CPU time              : 0.05999 s

SATISFIABLE
